% Auto-generated by scripts/generate_dzn.py
% problem_type   = regex
% instance       = regex_89
% source_json    = instances_json/2_high_blowup/regex_89.json
% blowup         = 15.666666666666666
% representation = DFA

mode = 0;

var_count = 23;
Q = 188;
S = 3;
q0 = 1;
F = {117, 118, 119, 120, 121, 122, 123, 124, 125, 126, 127, 128, 129, 130, 131, 132, 133, 134, 135, 136, 137, 138, 139, 140, 141, 142, 143, 144, 145, 146, 147, 148, 149, 150, 151, 152, 153, 154, 155, 156, 157, 158, 159, 160, 161, 162, 163, 164, 165, 166, 167, 168, 169, 170, 171, 172, 173, 174, 175, 176, 177, 178, 179, 180, 181, 182, 183, 184, 185, 186, 187, 188};
d_dfa = array2d(1..188, 1..3, [
  2, 1, 1,
  3, 1, 1,
  4, 1, 1,
  6, 5, 5,
  8, 7, 7,
  10, 9, 9,
  12, 11, 11,
  13, 11, 11,
  15, 14, 14,
  17, 16, 16,
  19, 18, 18,
  20, 18, 18,
  21, 18, 18,
  23, 22, 22,
  24, 22, 22,
  26, 25, 25,
  28, 27, 27,
  30, 29, 29,
  31, 29, 29,
  32, 29, 29,
  34, 33, 33,
  36, 35, 35,
  37, 35, 35,
  38, 35, 35,
  40, 39, 39,
  41, 39, 39,
  43, 42, 42,
  45, 44, 44,
  47, 46, 46,
  48, 46, 46,
  49, 46, 46,
  51, 50, 50,
  53, 52, 52,
  55, 54, 54,
  57, 56, 56,
  58, 56, 56,
  59, 56, 56,
  61, 60, 60,
  63, 62, 62,
  64, 62, 62,
  65, 62, 62,
  67, 66, 66,
  68, 66, 66,
  70, 69, 69,
  72, 71, 71,
  74, 73, 73,
  75, 73, 73,
  76, 73, 73,
  78, 77, 77,
  80, 79, 79,
  82, 81, 81,
  84, 83, 83,
  85, 83, 83,
  87, 86, 86,
  89, 88, 88,
  91, 90, 90,
  92, 90, 90,
  93, 90, 90,
  95, 94, 94,
  97, 96, 96,
  99, 98, 98,
  101, 100, 100,
  102, 100, 100,
  103, 100, 100,
  105, 104, 104,
  107, 106, 106,
  108, 106, 106,
  109, 106, 106,
  111, 110, 110,
  112, 110, 110,
  114, 113, 113,
  116, 115, 115,
  118, 117, 117,
  119, 117, 117,
  120, 117, 117,
  122, 121, 121,
  124, 123, 123,
  126, 125, 125,
  128, 127, 127,
  129, 127, 127,
  131, 130, 130,
  133, 132, 132,
  135, 134, 134,
  136, 134, 134,
  137, 134, 134,
  139, 138, 138,
  140, 138, 138,
  142, 141, 141,
  144, 143, 143,
  146, 145, 145,
  147, 145, 145,
  148, 145, 145,
  150, 149, 149,
  152, 151, 151,
  154, 153, 153,
  156, 155, 155,
  157, 155, 155,
  159, 158, 158,
  161, 160, 160,
  163, 162, 162,
  164, 162, 162,
  165, 162, 162,
  167, 166, 166,
  169, 168, 168,
  171, 170, 170,
  173, 172, 172,
  174, 172, 172,
  175, 172, 172,
  177, 176, 176,
  179, 178, 178,
  180, 178, 178,
  181, 178, 178,
  183, 182, 182,
  184, 182, 182,
  186, 185, 185,
  188, 187, 187,
  2, 1, 1,
  3, 1, 1,
  4, 1, 1,
  6, 5, 5,
  8, 7, 7,
  10, 9, 9,
  12, 11, 11,
  13, 11, 11,
  15, 14, 14,
  17, 16, 16,
  19, 18, 18,
  20, 18, 18,
  21, 18, 18,
  23, 22, 22,
  24, 22, 22,
  26, 25, 25,
  28, 27, 27,
  30, 29, 29,
  31, 29, 29,
  32, 29, 29,
  34, 33, 33,
  36, 35, 35,
  37, 35, 35,
  38, 35, 35,
  40, 39, 39,
  41, 39, 39,
  43, 42, 42,
  45, 44, 44,
  118, 117, 117,
  119, 117, 117,
  120, 117, 117,
  122, 121, 121,
  124, 123, 123,
  126, 125, 125,
  128, 127, 127,
  129, 127, 127,
  131, 130, 130,
  133, 132, 132,
  135, 134, 134,
  136, 134, 134,
  137, 134, 134,
  139, 138, 138,
  140, 138, 138,
  142, 141, 141,
  144, 143, 143,
  146, 145, 145,
  147, 145, 145,
  148, 145, 145,
  150, 149, 149,
  152, 151, 151,
  154, 153, 153,
  156, 155, 155,
  157, 155, 155,
  159, 158, 158,
  161, 160, 160,
  163, 162, 162,
  164, 162, 162,
  165, 162, 162,
  167, 166, 166,
  169, 168, 168,
  171, 170, 170,
  173, 172, 172,
  174, 172, 172,
  175, 172, 172,
  177, 176, 176,
  179, 178, 178,
  180, 178, 178,
  181, 178, 178,
  183, 182, 182,
  184, 182, 182,
  186, 185, 185,
  188, 187, 187
]);
d_nfa = array2d(1..188, 1..3, [
  {}, {}, {},
  {}, {}, {},
  {}, {}, {},
  {}, {}, {},
  {}, {}, {},
  {}, {}, {},
  {}, {}, {},
  {}, {}, {},
  {}, {}, {},
  {}, {}, {},
  {}, {}, {},
  {}, {}, {},
  {}, {}, {},
  {}, {}, {},
  {}, {}, {},
  {}, {}, {},
  {}, {}, {},
  {}, {}, {},
  {}, {}, {},
  {}, {}, {},
  {}, {}, {},
  {}, {}, {},
  {}, {}, {},
  {}, {}, {},
  {}, {}, {},
  {}, {}, {},
  {}, {}, {},
  {}, {}, {},
  {}, {}, {},
  {}, {}, {},
  {}, {}, {},
  {}, {}, {},
  {}, {}, {},
  {}, {}, {},
  {}, {}, {},
  {}, {}, {},
  {}, {}, {},
  {}, {}, {},
  {}, {}, {},
  {}, {}, {},
  {}, {}, {},
  {}, {}, {},
  {}, {}, {},
  {}, {}, {},
  {}, {}, {},
  {}, {}, {},
  {}, {}, {},
  {}, {}, {},
  {}, {}, {},
  {}, {}, {},
  {}, {}, {},
  {}, {}, {},
  {}, {}, {},
  {}, {}, {},
  {}, {}, {},
  {}, {}, {},
  {}, {}, {},
  {}, {}, {},
  {}, {}, {},
  {}, {}, {},
  {}, {}, {},
  {}, {}, {},
  {}, {}, {},
  {}, {}, {},
  {}, {}, {},
  {}, {}, {},
  {}, {}, {},
  {}, {}, {},
  {}, {}, {},
  {}, {}, {},
  {}, {}, {},
  {}, {}, {},
  {}, {}, {},
  {}, {}, {},
  {}, {}, {},
  {}, {}, {},
  {}, {}, {},
  {}, {}, {},
  {}, {}, {},
  {}, {}, {},
  {}, {}, {},
  {}, {}, {},
  {}, {}, {},
  {}, {}, {},
  {}, {}, {},
  {}, {}, {},
  {}, {}, {},
  {}, {}, {},
  {}, {}, {},
  {}, {}, {},
  {}, {}, {},
  {}, {}, {},
  {}, {}, {},
  {}, {}, {},
  {}, {}, {},
  {}, {}, {},
  {}, {}, {},
  {}, {}, {},
  {}, {}, {},
  {}, {}, {},
  {}, {}, {},
  {}, {}, {},
  {}, {}, {},
  {}, {}, {},
  {}, {}, {},
  {}, {}, {},
  {}, {}, {},
  {}, {}, {},
  {}, {}, {},
  {}, {}, {},
  {}, {}, {},
  {}, {}, {},
  {}, {}, {},
  {}, {}, {},
  {}, {}, {},
  {}, {}, {},
  {}, {}, {},
  {}, {}, {},
  {}, {}, {},
  {}, {}, {},
  {}, {}, {},
  {}, {}, {},
  {}, {}, {},
  {}, {}, {},
  {}, {}, {},
  {}, {}, {},
  {}, {}, {},
  {}, {}, {},
  {}, {}, {},
  {}, {}, {},
  {}, {}, {},
  {}, {}, {},
  {}, {}, {},
  {}, {}, {},
  {}, {}, {},
  {}, {}, {},
  {}, {}, {},
  {}, {}, {},
  {}, {}, {},
  {}, {}, {},
  {}, {}, {},
  {}, {}, {},
  {}, {}, {},
  {}, {}, {},
  {}, {}, {},
  {}, {}, {},
  {}, {}, {},
  {}, {}, {},
  {}, {}, {},
  {}, {}, {},
  {}, {}, {},
  {}, {}, {},
  {}, {}, {},
  {}, {}, {},
  {}, {}, {},
  {}, {}, {},
  {}, {}, {},
  {}, {}, {},
  {}, {}, {},
  {}, {}, {},
  {}, {}, {},
  {}, {}, {},
  {}, {}, {},
  {}, {}, {},
  {}, {}, {},
  {}, {}, {},
  {}, {}, {},
  {}, {}, {},
  {}, {}, {},
  {}, {}, {},
  {}, {}, {},
  {}, {}, {},
  {}, {}, {},
  {}, {}, {},
  {}, {}, {},
  {}, {}, {},
  {}, {}, {},
  {}, {}, {},
  {}, {}, {},
  {}, {}, {},
  {}, {}, {},
  {}, {}, {},
  {}, {}, {},
  {}, {}, {},
  {}, {}, {},
  {}, {}, {},
  {}, {}, {},
  {}, {}, {}
]);
